15 73
13 11
6 45
1 48
4 21
12 28
4 37
8 10
10 24
4 45
6 22
3 30
5 21
8 14
7 16
9 14
9 13
13 22
11 46
2 24
7 25
8 30
8 45
9 33
2 25
6 23
10 31
14 15
9 45
10 10
5 41
4 15
1 40
4 10
6 46
1 44
3 39
4 13
9 44
2 23
4 31
14 19
4 10
4 20
8 33
1 12
2 44
10 45
10 40
1 13
11 28
5 45
8 30
4 27
12 37
3 24
8 11
13 46
3 20
1 32
1 21
5 12
6 26
6 42
7 10
9 48
5 29
2 23
5 40
10 34
11 12
11 13
9 40
2 44
